BAYES
100
2 2 2 2 2 2 2 2 2 2 2 2 2 2 2 2 2 2 2 2 2 2 2 2 2 2 2 2 2 2 2 2 2 2 2 2 2 2 2 2 2 2 2 2 2 2 2 2 2 2 2 2 2 2 2 2 2 2 2 2 2 2 2 2 2 2 2 2 2 2 2 2 2 2 2 2 2 2 2 2 2 2 2 2 2 2 2 2 2 2 2 2 2 2 2 2 2 2 2 2
100
3 1 10 0
3 2 11 1
3 3 12 2
3 4 13 3
3 5 14 4
3 6 15 5
3 7 16 6
3 8 17 7
3 9 18 8
2 10 9
3 11 20 10
3 12 21 11
3 13 22 12
3 14 23 13
3 15 24 14
3 16 25 15
3 17 26 16
3 18 27 17
3 19 28 18
2 20 19
3 21 30 20
3 22 31 21
3 23 32 22
3 24 33 23
3 25 34 24
3 26 35 25
3 27 36 26
3 28 37 27
3 29 38 28
2 30 29
3 31 40 30
3 32 41 31
3 33 42 32
3 34 43 33
3 35 44 34
3 36 45 35
3 37 46 36
3 38 47 37
3 39 48 38
2 40 39
3 41 50 40
3 42 51 41
3 43 52 42
3 44 53 43
3 45 54 44
3 46 55 45
3 47 56 46
3 48 57 47
3 49 58 48
2 50 49
3 51 60 50
3 52 61 51
3 53 62 52
3 54 63 53
3 55 64 54
3 56 65 55
3 57 66 56
3 58 67 57
3 59 68 58
2 60 59
3 61 70 60
3 62 71 61
3 63 72 62
3 64 73 63
3 65 74 64
3 66 75 65
3 67 76 66
3 68 77 67
3 69 78 68
2 70 69
3 71 80 70
3 72 81 71
3 73 82 72
3 74 83 73
3 75 84 74
3 76 85 75
3 77 86 76
3 78 87 77
3 79 88 78
2 80 79
3 81 90 80
3 82 91 81
3 83 92 82
3 84 93 83
3 85 94 84
3 86 95 85
3 87 96 86
3 88 97 87
3 89 98 88
2 90 89
2 100 90
2 101 91
2 102 92
2 103 93
2 104 94
2 105 95
2 106 96
2 107 97
2 108 98
1  99
8
0 1 1 0 0 1 1 0
8
0 1 0 1 1 0 0 1
8
0 1 1 0 1 0 0 1
8
0 1 0 1 0 1 0 1
8
1 0 0 1 0 1 1 0
8
1 0 1 0 0 1 0 1
8
1 0 0 1 1 0 0 1
8
1 0 0 1 0 1 0 1
8
1 0 0 1 1 0 1 0
4
0 1 0 1
8
1 0 0 1 1 0 1 0
8
0 1 1 0 1 0 1 0
8
1 0 0 1 1 0 1 0
8
0 1 1 0 0 1 1 0
8
0 1 0 1 0 1 1 0
8
0 1 0 1 0 1 1 0
8
1 0 1 0 0 1 1 0
8
0 1 1 0 1 0 1 0
8
0.5183143217046174 0.48168567829538256 0.9057139547029235 0.0942860452970765 0.7679573266246681 0.23204267337533183 0.6122533538564764 0.38774664614352367
4
0 1 1 0
8
1 0 1 0 1 0 1 0
8
1 0 1 0 1 0 0 1
8
1 0 0 1 1 0 1 0
8
0 1 0 1 1 0 1 0
8
1 0 0 1 0 1 1 0
8
0 1 1 0 1 0 0 1
8
1 0 0 1 0 1 1 0
8
0 1 0 1 0 1 0 1
8
0.5615024088022194 0.4384975911977806 0.417419181142122 0.582580818857878 0.0931785742163497 0.9068214257836503 0.5188405498525669 0.48115945014743305
4
1 0 0 1
8
0 1 0 1 0 1 0 1
8
0 1 0 1 1 0 1 0
8
1 0 0 1 1 0 1 0
8
0.2893560189391373 0.7106439810608627 0.17325100051175651 0.8267489994882434 0.18307379921851716 0.8169262007814828 0.4644741958882376 0.5355258041117624
8
0 1 0 1 1 0 0 1
8
0 1 1 0 1 0 1 0
8
0.4094978511400562 0.5905021488599438 0.46820675617897134 0.5317932438210287 0.5143386810620337 0.4856613189379663 0.8192409721902806 0.18075902780971947
8
1 0 1 0 1 0 0 1
8
0 1 1 0 1 0 1 0
4
1 0 0 1
8
1 0 0 1 1 0 0 1
8
0.5382277916991093 0.46177220830089066 0.2106593905158496 0.7893406094841504 0.20651344866739754 0.7934865513326025 0.4017658212459951 0.5982341787540049
8
1 0 1 0 1 0 1 0
8
0 1 0 1 1 0 1 0
8
0 1 1 0 0 1 1 0
8
0.3822056774967405 0.6177943225032595 0.6333131396427462 0.3666868603572539 0.4413842787519368 0.5586157212480632 0.8785273283932044 0.12147267160679562
8
1 0 1 0 0 1 0 1
8
0 1 1 0 1 0 0 1
8
0 1 0 1 1 0 1 0
4
1 0 1 0
8
1 0 0 1 1 0 0 1
8
0.769078271919381 0.23092172808061898 0.5090854158978849 0.490914584102115 0.7512008830923942 0.24879911690760578 0.4830385553290579 0.5169614446709422
8
0 1 0 1 0 1 1 0
8
1 0 0 1 0 1 0 1
8
1 0 0 1 1 0 0 1
8
1 0 1 0 0 1 0 1
8
0.9170841439528916 0.08291585604710833 0.924087688042295 0.07591231195770495 0.6903652788353698 0.3096347211646302 0.6444953050704888 0.35550469492951126
8
1 0 0 1 0 1 0 1
8
0 1 0 1 1 0 0 1
4
1 0 0 1
8
0 1 1 0 0 1 1 0
8
0 1 1 0 1 0 1 0
8
1 0 1 0 0 1 1 0
8
1 0 1 0 1 0 0 1
8
1 0 0 1 1 0 1 0
8
0 1 0 1 1 0 1 0
8
1 0 0 1 0 1 1 0
8
0 1 1 0 0 1 0 1
8
1 0 0 1 0 1 1 0
4
0 1 1 0
8
0 1 0 1 0 1 1 0
8
1 0 1 0 0 1 1 0
8
0 1 1 0 0 1 1 0
8
1 0 0 1 0 1 0 1
8
0 1 0 1 0 1 0 1
8
1 0 0 1 1 0 0 1
8
1 0 1 0 1 0 0 1
8
0 1 1 0 0 1 1 0
8
0 1 0 1 0 1 0 1
4
1 0 0 1
8
0 1 1 0 1 0 0 1
8
1 0 0 1 1 0 0 1
8
0 1 0 1 1 0 1 0
8
1 0 1 0 0 1 1 0
8
1 0 1 0 0 1 1 0
8
1 0 1 0 0 1 1 0
8
0 1 0 1 0 1 0 1
8
1 0 1 0 1 0 0 1
8
0 1 1 0 1 0 0 1
4
1 0 1 0
4
1 0 1 0
4
0.969085483621268 0.030914516378732045 0.7006499860265223 0.2993500139734777
4
1 0 1 0
4
0 1 1 0
4
0.8557335657012444 0.14426643429875569 0.4415348631327709 0.5584651368672291
4
1 0 1 0
4
0 1 0 1
4
1 0 1 0
4
0 1 1 0
2
0 1
